 [MOLDEN FORMAT]
 [N_FREQ]
3
 [NATOM]
3
 [FREQ]
   1577.29
   4012.90
   4161.30
 [FR-COORD]
O                   0.00000000               0.00000000              -0.07759509
H                  -1.00759125               1.00759125              -1.16117854
H                   1.00759125              -1.00759125              -1.16117854

 [FR-NORM-COORD]
  vibration      1
              0.00000000              -0.00000000               0.06815888
              0.28871943              -0.28871943              -0.54086531
             -0.28871943               0.28871943              -0.54086531
  vibration      2
              0.00000000              -0.00000000              -0.04848994
              0.40583252              -0.40583252               0.38478515
             -0.40583252               0.40583252               0.38478515
  vibration      3
             -0.04807730               0.04807730              -0.00000000
              0.38151070              -0.38151070               0.41028411
              0.38151070              -0.38151070              -0.41028411


